100 10
297 594
411 142
468 493
783 738
196 382
413 234
839 584
631 978
615 707
431 733
314 95
381 425
607 438
821 648
440 50
515 343
714 150
810 715
636 229
471 670
498 428
216 224
161 459
227 959
517 532
770 110
477 675
691 335
580 381
698 802
297 644
397 343
765 728
400 668
598 22
510 865
336 444
322 459
297 303
821 423
733 411
614 815
534 936
799 719
478 185
585 374
635 712
313 385
783 893
335 674
629 315
210 328
549 772
254 525
281 337
434 295
471 467
687 469
284 625
577 562
113 262
748 607
155 802
695 211
891 731
680 634
672 143
590 234
546 189
876 449
249 284
239 553
742 730
729 296
636 339
358 373
656 881
673 413
646 207
525 371
374 370
379 351
414 461
396 238
588 494
546 898
213 427
492 593
842 653
602 363
588 663
328 744
604 726
752 673
594 482
426 732
632 453
775 256
258 831
618 368
